(set-logic HORN)
(declare-fun !inv0 (Int (Array Int Int) Int Int ) Bool)
(declare-fun !inv1 (Int (Array Int Int) Int Int ) Bool)
(assert (forall ((CELLCOUNT_2@0 Int)(volArray@0 (Array Int Int))(.volArray!size@0 Int)(i@1 Int)) (=> (and (> (* 2 |CELLCOUNT_2@0|) 1) (= |.volArray!size@0| (* 2 |CELLCOUNT_2@0|)) (= |i@1| 1)) (!inv0 |CELLCOUNT_2@0| |volArray@0| |.volArray!size@0| |i@1|))))
(assert (forall ((CELLCOUNT_2@0 Int)(volArray@0 (Array Int Int))(.volArray!size@0 Int)(i@0 Int)(i@1 Int)) (=> (and (!inv0 |CELLCOUNT_2@0| |volArray@0| |.volArray!size@0| |i@0|) (not (<= |i@0| |CELLCOUNT_2@0|)) (= |i@1| 1)) (!inv1 |CELLCOUNT_2@0| |volArray@0| |.volArray!size@0| |i@1|))))
(assert (forall ((CELLCOUNT_2@0 Int)(volArray@0 (Array Int Int))(.volArray!size@0 Int)(i@0 Int)) (=> (and (!inv1 |CELLCOUNT_2@0| |volArray@0| |.volArray!size@0| |i@0|) (not (<= |i@0| |CELLCOUNT_2@0|)) (not (forall ((k@0 Int)) (=> (and (<= 0 |k@0|) (< |k@0| (* 2 |CELLCOUNT_2@0|))) (or (>= (select |volArray@0| |k@0|) 2) (= (select |volArray@0| |k@0|) 0)))))) false)))
(assert (forall ((CELLCOUNT_2@0 Int)(volArray@0 (Array Int Int))(.volArray!size@0 Int)(i@0 Int)(volArray@1 (Array Int Int))(i@1 Int)(volArray@2 (Array Int Int))) (=> (and (!inv0 |CELLCOUNT_2@0| |volArray@2| |.volArray!size@0| |i@0|) (= |volArray@1| (store |volArray@0| (- (* |i@0| 2) 1) (select |volArray@0| (- (* |i@0| 2) 1)))) (= |i@1| (+ |i@0| 1)) (<= |i@0| |CELLCOUNT_2@0|) (not (>= 3 2)) (= |volArray@0| (store |volArray@2| (- (* |i@0| 2) 2) 0))) (!inv0 |CELLCOUNT_2@0| |volArray@1| |.volArray!size@0| |i@1|))))
(assert (forall ((CELLCOUNT_2@0 Int)(volArray@0 (Array Int Int))(.volArray!size@0 Int)(i@0 Int)(volArray@1 (Array Int Int))(i@1 Int)(volArray@2 (Array Int Int))) (=> (and (!inv0 |CELLCOUNT_2@0| |volArray@2| |.volArray!size@0| |i@0|) (= |volArray@1| (store |volArray@0| (- (* |i@0| 2) 1) (select |volArray@0| (- (* |i@0| 2) 1)))) (= |i@1| (+ |i@0| 1)) (<= |i@0| |CELLCOUNT_2@0|) (>= 3 2) (= |volArray@0| (store |volArray@2| (- (* |i@0| 2) 2) 3))) (!inv0 |CELLCOUNT_2@0| |volArray@1| |.volArray!size@0| |i@1|))))
(assert (forall ((CELLCOUNT_2@0 Int)(volArray@0 (Array Int Int))(.volArray!size@0 Int)(i@0 Int)(volArray@1 (Array Int Int))(i@1 Int)(volArray@2 (Array Int Int))) (=> (and (!inv1 |CELLCOUNT_2@0| |volArray@2| |.volArray!size@0| |i@0|) (= |volArray@1| (store |volArray@0| (- (* |i@0| 2) 2) (select |volArray@0| (- (* |i@0| 2) 2)))) (= |i@1| (+ |i@0| 1)) (<= |i@0| |CELLCOUNT_2@0|) (not (>= 1 2)) (= |volArray@0| (store |volArray@2| (- (* |i@0| 2) 1) 0))) (!inv1 |CELLCOUNT_2@0| |volArray@1| |.volArray!size@0| |i@1|))))
(assert (forall ((CELLCOUNT_2@0 Int)(volArray@0 (Array Int Int))(.volArray!size@0 Int)(i@0 Int)(volArray@1 (Array Int Int))(i@1 Int)(volArray@2 (Array Int Int))) (=> (and (!inv1 |CELLCOUNT_2@0| |volArray@2| |.volArray!size@0| |i@0|) (= |volArray@1| (store |volArray@0| (- (* |i@0| 2) 2) (select |volArray@0| (- (* |i@0| 2) 2)))) (= |i@1| (+ |i@0| 1)) (<= |i@0| |CELLCOUNT_2@0|) (>= 1 2) (= |volArray@0| (store |volArray@2| (- (* |i@0| 2) 1) 1))) (!inv1 |CELLCOUNT_2@0| |volArray@1| |.volArray!size@0| |i@1|))))
(check-sat)